100 100
74 14
7 48
2 19
67 42
70 11
42 9
80 12
56 24
87 32
41 18
57 17
25 5
43 33
15 35
4 5
44 4
90 43
34 46
88 14
18 13
6 23
81 2
45 1
27 16
32 30
33 41
31 31
35 35
47 6
10 24
9 46
23 20
69 17
26 39
51 10
49 25
93 36
1 40
62 33
98 11
78 19
65 49
100 44
96 18
52 8
89 39
73 3
30 32
50 40
68 34
11 27
48 22
29 22
36 21
20 36
60 8
16 29
71 48
66 4
72 44
12 41
84 30
13 6
54 38
64 2
94 27
77 7
58 50
46 13
21 43
17 29
82 23
53 28
14 16
55 37
38 15
83 31
95 12
28 34
97 10
79 45
92 38
91 45
75 26
22 20
59 47
8 7
24 25
40 3
5 37
86 50
76 42
39 49
63 21
3 1
99 47
19 26
61 15
85 28
37 9
